c This Formula is generated by mcnf
c
c    horn? no 
c    forced? no 
c    mixed sat? no 
c    clause length = 3 
c
p cnf 4 11
1 2 3 0
-2 -3 0
1 0
2 4 0
1 0
1 4 0
1 2 3 4 0
-1 -2 0
-3 2 4 0
-3 0
4 1 0
3 0
